/*********************************************
 * OPL 12.6.0.0 Data
 * Author: Adrian Rodriguez Bazaga, Pau Rodriguez Esmerats
 * Creation Date: 10/12/2017 at 12:53:55
 *********************************************/

maxConsec=5;
maxPresence=16;
maxHours=5;
minHours=1;
hours=24;
demand= [34 39 39 30 30 12 7 7 7 0 0 1 0 1 0 1 0 1 0 1 0 0 0 0  ];
nNurses=64;
centroides=3;
